\Problem name: compact

Minimize
OBJROW: C
Subject To
ord(0,1):  x(0,0) - x(0,2) >= 5
ord(0,2):  - x(0,0) + x(0,1) >= 9
ord(1,1):  - x(1,0) + x(1,1) >= 6
ord(1,2):  - x(1,1) + x(1,2) >= 3
ord(2,1):  x(2,0) - x(2,2) >= 6
ord(2,2):  - x(2,0) + x(2,1) >= 9
triangle2(0,1,0):  y(0,1,0) + y(1,0,0) = 1
triangle2(0,1,1):  y(0,1,1) + y(1,0,1) = 1
triangle2(0,1,2):  y(0,1,2) + y(1,0,2) = 1
triangle2(0,2,0):  y(0,2,0) + y(2,0,0) = 1
triangle2(0,2,1):  y(0,2,1) + y(2,0,1) = 1
triangle2(0,2,2):  y(0,2,2) + y(2,0,2) = 1
triangle2(1,2,0):  y(1,2,0) + y(2,1,0) = 1
triangle2(1,2,1):  y(1,2,1) + y(2,1,1) = 1
triangle2(1,2,2):  y(1,2,2) + y(2,1,2) = 1
MCLinV(0,1,0):  x(0,0) - v(0,1,0) - x(1,0) = 6
MCLinV(1,0,0):  - x(0,0) - v(1,0,0) + x(1,0) = 9
MCLin1(0,1,0):  u(0,1,0) >= -0
MCLin2(0,1,0):  -49 y(1,0,0) - u(0,1,0) <= -0
MCLin3(0,1,0):  43 y(1,0,0) + v(0,1,0) - u(0,1,0) <= 43
MCLin4(0,1,0):  43 y(1,0,0) - u(0,1,0) >= -0
MCLin5(0,1,0):  -49 y(1,0,0) + v(0,1,0) - u(0,1,0) >= -49
MCLin6(1,0,0):  u(1,0,0) >= -0
MCLin7(1,0,0):  -58 y(0,1,0) - u(1,0,0) <= -0
MCLin8(1,0,0):  34 y(0,1,0) + v(1,0,0) - u(1,0,0) <= 34
MCLin9(1,0,0):  34 y(0,1,0) - u(1,0,0) >= -0
MCLin10(1,0,0):  -58 y(0,1,0) + v(1,0,0) - u(1,0,0) >= -58
MCLinV(0,1,1):  x(0,1) - v(0,1,1) - x(1,1) = 3
MCLinV(1,0,1):  - x(0,1) - v(1,0,1) + x(1,1) = 9
MCLin1(0,1,1):  u(0,1,1) >= -0
MCLin2(0,1,1):  -43 y(1,0,1) - u(0,1,1) <= -0
MCLin3(0,1,1):  49 y(1,0,1) + v(0,1,1) - u(0,1,1) <= 49
MCLin4(0,1,1):  49 y(1,0,1) - u(0,1,1) >= -0
MCLin5(0,1,1):  -43 y(1,0,1) + v(0,1,1) - u(0,1,1) >= -43
MCLin6(1,0,1):  u(1,0,1) >= -0
MCLin7(1,0,1):  -61 y(0,1,1) - u(1,0,1) <= -0
MCLin8(1,0,1):  31 y(0,1,1) + v(1,0,1) - u(1,0,1) <= 31
MCLin9(1,0,1):  31 y(0,1,1) - u(1,0,1) >= -0
MCLin10(1,0,1):  -61 y(0,1,1) + v(1,0,1) - u(1,0,1) >= -61
MCLinV(0,1,2):  x(0,2) - v(0,1,2) - x(1,2) = 10
MCLinV(1,0,2):  - x(0,2) - v(1,0,2) + x(1,2) = 5
MCLin1(0,1,2):  u(0,1,2) >= -0
MCLin2(0,1,2):  -67 y(1,0,2) - u(0,1,2) <= -0
MCLin3(0,1,2):  25 y(1,0,2) + v(0,1,2) - u(0,1,2) <= 25
MCLin4(0,1,2):  25 y(1,0,2) - u(0,1,2) >= -0
MCLin5(0,1,2):  -67 y(1,0,2) + v(0,1,2) - u(0,1,2) >= -67
MCLin6(1,0,2):  u(1,0,2) >= -0
MCLin7(1,0,2):  -40 y(0,1,2) - u(1,0,2) <= -0
MCLin8(1,0,2):  52 y(0,1,2) + v(1,0,2) - u(1,0,2) <= 52
MCLin9(1,0,2):  52 y(0,1,2) - u(1,0,2) >= -0
MCLin10(1,0,2):  -40 y(0,1,2) + v(1,0,2) - u(1,0,2) >= -40
MCLinV(0,2,0):  x(0,0) - v(0,2,0) - x(2,0) = 9
MCLinV(2,0,0):  - x(0,0) - v(2,0,0) + x(2,0) = 9
MCLin1(0,2,0):  u(0,2,0) >= -0
MCLin2(0,2,0):  -52 y(2,0,0) - u(0,2,0) <= -0
MCLin3(0,2,0):  34 y(2,0,0) + v(0,2,0) - u(0,2,0) <= 34
MCLin4(0,2,0):  34 y(2,0,0) - u(0,2,0) >= -0
MCLin5(0,2,0):  -52 y(2,0,0) + v(0,2,0) - u(0,2,0) >= -52
MCLin6(2,0,0):  u(2,0,0) >= -0
MCLin7(2,0,0):  -52 y(0,2,0) - u(2,0,0) <= -0
MCLin8(2,0,0):  34 y(0,2,0) + v(2,0,0) - u(2,0,0) <= 34
MCLin9(2,0,0):  34 y(0,2,0) - u(2,0,0) >= -0
MCLin10(2,0,0):  -52 y(0,2,0) + v(2,0,0) - u(2,0,0) >= -52
MCLinV(0,2,1):  x(0,1) - v(0,2,1) - x(2,1) = 10
MCLinV(2,0,1):  - x(0,1) - v(2,0,1) + x(2,1) = 9
MCLin1(0,2,1):  u(0,2,1) >= -0
MCLin2(0,2,1):  -53 y(2,0,1) - u(0,2,1) <= -0
MCLin3(0,2,1):  33 y(2,0,1) + v(0,2,1) - u(0,2,1) <= 33
MCLin4(0,2,1):  33 y(2,0,1) - u(0,2,1) >= -0
MCLin5(0,2,1):  -53 y(2,0,1) + v(0,2,1) - u(0,2,1) >= -53
MCLin6(2,0,1):  u(2,0,1) >= -0
MCLin7(2,0,1):  -52 y(0,2,1) - u(2,0,1) <= -0
MCLin8(2,0,1):  34 y(0,2,1) + v(2,0,1) - u(2,0,1) <= 34
MCLin9(2,0,1):  34 y(0,2,1) - u(2,0,1) >= -0
MCLin10(2,0,1):  -52 y(0,2,1) + v(2,0,1) - u(2,0,1) >= -52
MCLinV(0,2,2):  x(0,2) - v(0,2,2) - x(2,2) = 6
MCLinV(2,0,2):  - x(0,2) - v(2,0,2) + x(2,2) = 5
MCLin1(0,2,2):  u(0,2,2) >= -0
MCLin2(0,2,2):  -48 y(2,0,2) - u(0,2,2) <= -0
MCLin3(0,2,2):  38 y(2,0,2) + v(0,2,2) - u(0,2,2) <= 38
MCLin4(0,2,2):  38 y(2,0,2) - u(0,2,2) >= -0
MCLin5(0,2,2):  -48 y(2,0,2) + v(0,2,2) - u(0,2,2) >= -48
MCLin6(2,0,2):  u(2,0,2) >= -0
MCLin7(2,0,2):  -49 y(0,2,2) - u(2,0,2) <= -0
MCLin8(2,0,2):  37 y(0,2,2) + v(2,0,2) - u(2,0,2) <= 37
MCLin9(2,0,2):  37 y(0,2,2) - u(2,0,2) >= -0
MCLin10(2,0,2):  -49 y(0,2,2) + v(2,0,2) - u(2,0,2) >= -49
MCLinV(1,2,0):  x(1,0) - v(1,2,0) - x(2,0) = 9
MCLinV(2,1,0):  - x(1,0) - v(2,1,0) + x(2,0) = 6
MCLin1(1,2,0):  u(1,2,0) >= -0
MCLin2(1,2,0):  -57 y(2,1,0) - u(1,2,0) <= -0
MCLin3(1,2,0):  33 y(2,1,0) + v(1,2,0) - u(1,2,0) <= 33
MCLin4(1,2,0):  33 y(2,1,0) - u(1,2,0) >= -0
MCLin5(1,2,0):  -57 y(2,1,0) + v(1,2,0) - u(1,2,0) >= -57
MCLin6(2,1,0):  u(2,1,0) >= -0
MCLin7(2,1,0):  -48 y(1,2,0) - u(2,1,0) <= -0
MCLin8(2,1,0):  42 y(1,2,0) + v(2,1,0) - u(2,1,0) <= 42
MCLin9(2,1,0):  42 y(1,2,0) - u(2,1,0) >= -0
MCLin10(2,1,0):  -48 y(1,2,0) + v(2,1,0) - u(2,1,0) >= -48
MCLinV(1,2,1):  x(1,1) - v(1,2,1) - x(2,1) = 10
MCLinV(2,1,1):  - x(1,1) - v(2,1,1) + x(2,1) = 3
MCLin1(1,2,1):  u(1,2,1) >= -0
MCLin2(1,2,1):  -61 y(2,1,1) - u(1,2,1) <= -0
MCLin3(1,2,1):  29 y(2,1,1) + v(1,2,1) - u(1,2,1) <= 29
MCLin4(1,2,1):  29 y(2,1,1) - u(1,2,1) >= -0
MCLin5(1,2,1):  -61 y(2,1,1) + v(1,2,1) - u(1,2,1) >= -61
MCLin6(2,1,1):  u(2,1,1) >= -0
MCLin7(2,1,1):  -42 y(1,2,1) - u(2,1,1) <= -0
MCLin8(2,1,1):  48 y(1,2,1) + v(2,1,1) - u(2,1,1) <= 48
MCLin9(2,1,1):  48 y(1,2,1) - u(2,1,1) >= -0
MCLin10(2,1,1):  -42 y(1,2,1) + v(2,1,1) - u(2,1,1) >= -42
MCLinV(1,2,2):  x(1,2) - v(1,2,2) - x(2,2) = 6
MCLinV(2,1,2):  - x(1,2) - v(2,1,2) + x(2,2) = 10
MCLin1(1,2,2):  u(1,2,2) >= -0
MCLin2(1,2,2):  -39 y(2,1,2) - u(1,2,2) <= -0
MCLin3(1,2,2):  51 y(2,1,2) + v(1,2,2) - u(1,2,2) <= 51
MCLin4(1,2,2):  51 y(2,1,2) - u(1,2,2) >= -0
MCLin5(1,2,2):  -39 y(2,1,2) + v(1,2,2) - u(1,2,2) >= -39
MCLin6(2,1,2):  u(2,1,2) >= -0
MCLin7(2,1,2):  -67 y(1,2,2) - u(2,1,2) <= -0
MCLin8(2,1,2):  23 y(1,2,2) + v(2,1,2) - u(2,1,2) <= 23
MCLin9(2,1,2):  23 y(1,2,2) - u(2,1,2) >= -0
MCLin10(2,1,2):  -67 y(1,2,2) + v(2,1,2) - u(2,1,2) >= -67
makespan(0):  C - x(0,1) >= 9
makespan(1):  C - x(1,2) >= 10
makespan(2):  C - x(2,1) >= 10
Bounds
 0 <= C <= 67
 5 <= x(0,0) <= 49
 0 <= y(0,1,0) <= 1
 0 <= y(1,0,0) <= 1
 -49 <= v(0,1,0) <= 43
 -58 <= v(1,0,0) <= 34
 -670 <= u(0,1,0)
 -670 <= u(1,0,0)
 0 <= y(0,2,0) <= 1
 0 <= y(2,0,0) <= 1
 -52 <= v(0,2,0) <= 34
 -52 <= v(2,0,0) <= 34
 -670 <= u(0,2,0)
 -670 <= u(2,0,0)
 0 <= x(1,0) <= 48
 0 <= y(1,2,0) <= 1
 0 <= y(2,1,0) <= 1
 -57 <= v(1,2,0) <= 33
 -48 <= v(2,1,0) <= 42
 -670 <= u(1,2,0)
 -670 <= u(2,1,0)
 6 <= x(2,0) <= 48
 14 <= x(0,1) <= 58
 0 <= y(0,1,1) <= 1
 0 <= y(1,0,1) <= 1
 -43 <= v(0,1,1) <= 49
 -61 <= v(1,0,1) <= 31
 -670 <= u(0,1,1)
 -670 <= u(1,0,1)
 0 <= y(0,2,1) <= 1
 0 <= y(2,0,1) <= 1
 -53 <= v(0,2,1) <= 33
 -52 <= v(2,0,1) <= 34
 -670 <= u(0,2,1)
 -670 <= u(2,0,1)
 6 <= x(1,1) <= 54
 0 <= y(1,2,1) <= 1
 0 <= y(2,1,1) <= 1
 -61 <= v(1,2,1) <= 29
 -42 <= v(2,1,1) <= 48
 -670 <= u(1,2,1)
 -670 <= u(2,1,1)
 15 <= x(2,1) <= 57
 0 <= x(0,2) <= 44
 0 <= y(0,1,2) <= 1
 0 <= y(1,0,2) <= 1
 -67 <= v(0,1,2) <= 25
 -40 <= v(1,0,2) <= 52
 -670 <= u(0,1,2)
 -670 <= u(1,0,2)
 0 <= y(0,2,2) <= 1
 0 <= y(2,0,2) <= 1
 -48 <= v(0,2,2) <= 38
 -49 <= v(2,0,2) <= 37
 -670 <= u(0,2,2)
 -670 <= u(2,0,2)
 9 <= x(1,2) <= 57
 0 <= y(1,2,2) <= 1
 0 <= y(2,1,2) <= 1
 -39 <= v(1,2,2) <= 51
 -67 <= v(2,1,2) <= 23
 -670 <= u(1,2,2)
 -670 <= u(2,1,2)
 0 <= x(2,2) <= 42
Integers
C x(0,0) y(0,1,0) y(1,0,0) v(0,1,0) v(1,0,0) u(0,1,0) u(1,0,0) y(0,2,0) y(2,0,0) 
v(0,2,0) v(2,0,0) u(0,2,0) u(2,0,0) x(1,0) y(1,2,0) y(2,1,0) v(1,2,0) v(2,1,0) u(1,2,0) 
u(2,1,0) x(2,0) x(0,1) y(0,1,1) y(1,0,1) v(0,1,1) v(1,0,1) u(0,1,1) u(1,0,1) y(0,2,1) 
y(2,0,1) v(0,2,1) v(2,0,1) u(0,2,1) u(2,0,1) x(1,1) y(1,2,1) y(2,1,1) v(1,2,1) v(2,1,1) 
u(1,2,1) u(2,1,1) x(2,1) x(0,2) y(0,1,2) y(1,0,2) v(0,1,2) v(1,0,2) u(0,1,2) u(1,0,2) 
y(0,2,2) y(2,0,2) v(0,2,2) v(2,0,2) u(0,2,2) u(2,0,2) x(1,2) y(1,2,2) y(2,1,2) v(1,2,2) 
v(2,1,2) u(1,2,2) u(2,1,2) x(2,2) 
End
